#------------------------------------------------------------------------------
#$Date: 2016-03-22 12:41:31 +0200 (Tue, 22 Mar 2016) $
#$Revision: 178959 $
#$URL: file:///home/coder/svn-repositories/cod/cif/4/11/88/4118891.cif $
#------------------------------------------------------------------------------
#
# This file is available in the Crystallography Open Database (COD),
# http://www.crystallography.net/
#
# All data on this site have been placed in the public domain by the
# contributors.
#
data_4118891
loop_
_publ_author_name
'Olga Karagiaridi'
'Marianne B. Lalonde'
'Wojciech Bury'
'Amy A. Sarjeant'
'Omar K. Farha'
'Joseph T. Hupp'
_publ_contact_author_name
;
;
_publ_section_title
;
 Opening ZIF-8: A Catalytically Active Zeolitic Imidazolate Framework of
 Sodalite Topology with Unsubstituted Linkers
;
_journal_name_full               'Journal of the American Chemical Society'
_journal_page_first              18790
_journal_page_last               18796
_journal_paper_doi               10.1021/ja308786r
_journal_volume                  134
_journal_year                    2012
_chemical_absolute_configuration ad
_chemical_formula_moiety         'C6 H6 N4 Zn'
_chemical_formula_sum            'C6 H6 N4 Zn'
_chemical_formula_weight         199.52
_chemical_name_systematic
;
 ? 
;
_space_group_crystal_system      cubic
_space_group_IT_number           217
_space_group_name_Hall           'I -4 2 3'
_space_group_name_H-M_alt        'I -4 3 m'
_symmetry_space_group_name_Hall  'I -4 2 3'
_symmetry_space_group_name_H-M   'I -4 3 m'
_atom_sites_solution_hydrogens   geom
_atom_sites_solution_primary     dual
_atom_sites_solution_secondary   difmap
_audit_creation_date             2012-03-21
_audit_creation_method
;
  Olex2 1.1
  (compiled Nov  1 2011 20:42:30, GUI svn.r3906)
;
_cell_angle_alpha                90.00
_cell_angle_beta                 90.00
_cell_angle_gamma                90.00
_cell_formula_units_Z            12
_cell_length_a                   16.8303(2)
_cell_length_b                   16.8303(2)
_cell_length_c                   16.8303(2)
_cell_measurement_reflns_used    7883
_cell_measurement_temperature    100(2)
_cell_measurement_theta_max      66.36
_cell_measurement_theta_min      3.71
_cell_volume                     4767.33(10)
_computing_cell_refinement       'SAINT V7.23A (Bruker, 2005)'
_computing_data_collection       'APEX2 V2.1-4 (Bruker, 2007)'
_computing_data_reduction        'Bruker SAINT'
_computing_molecular_graphics
;
O. V. Dolomanov, L. J. Bourhis, R. J. Gildea, J. A. K. Howard and H. Puschmann,
OLEX2: a complete structure solution, refinement and analysis program.
J. Appl. Cryst. (2009). 42, 339-341.
;
_computing_publication_material
;
O. V. Dolomanov, L. J. Bourhis, R. J. Gildea, J. A. K. Howard and H. Puschmann,
OLEX2: a complete structure solution, refinement and analysis program.
J. Appl. Cryst. (2009). 42, 339-341.
;
_computing_structure_refinement
;
XL, G.M. Sheldrick, Acta Cryst.
(2008). A64, 112-122
;
_computing_structure_solution
;
XM, G.M. Sheldrick, Acta Cryst.
(2008). A64, 112-122
;
_diffrn_ambient_temperature      100.01
_diffrn_detector_area_resol_mean 8
_diffrn_measured_fraction_theta_full 0.983
_diffrn_measured_fraction_theta_max 0.983
_diffrn_measurement_device_type  'Bruker Kappa APEX CCD area detector'
_diffrn_measurement_method       '\w and \f scans'
_diffrn_radiation_monochromator  'MX optics'
_diffrn_radiation_type           CuK\a
_diffrn_radiation_wavelength     1.54184
_diffrn_reflns_av_R_equivalents  0.0271
_diffrn_reflns_av_unetI/netI     0.0144
_diffrn_reflns_limit_h_max       19
_diffrn_reflns_limit_h_min       -20
_diffrn_reflns_limit_k_max       19
_diffrn_reflns_limit_k_min       -10
_diffrn_reflns_limit_l_max       17
_diffrn_reflns_limit_l_min       -19
_diffrn_reflns_number            10526
_diffrn_reflns_theta_full        67.36
_diffrn_reflns_theta_max         67.36
_diffrn_reflns_theta_min         3.71
_diffrn_source                   microsource
_diffrn_source_current           0.65
_diffrn_source_power             0.02925
_diffrn_source_voltage           45.0
_exptl_absorpt_coefficient_mu    1.894
_exptl_absorpt_correction_T_max  0.7529
_exptl_absorpt_correction_T_min  0.6476
_exptl_absorpt_correction_type   multi-scan
_exptl_absorpt_process_details
;
SADABS-2008/1 (Bruker,2008) was used for absorption correction.
R(int) was 0.0745 before and 0.0412 after correction.
The Ratio of minimum to maximum transmission is 0.8601.
The \l/2 correction factor is 0.0015.
;
_exptl_crystal_colour            colourless
_exptl_crystal_colour_primary    colourless
_exptl_crystal_density_diffrn    0.834
_exptl_crystal_description       block
_exptl_crystal_F_000             1200
_exptl_crystal_size_max          0.177
_exptl_crystal_size_mid          0.16
_exptl_crystal_size_min          0.064
_refine_diff_density_max         0.298
_refine_diff_density_min         -0.166
_refine_diff_density_rms         0.043
_refine_ls_abs_structure_details 'Flack H D (1983), Acta Cryst. A39, 876-881'
_refine_ls_abs_structure_Flack   -0.01(5)
_refine_ls_extinction_method     none
_refine_ls_goodness_of_fit_ref   1.097
_refine_ls_hydrogen_treatment    constr
_refine_ls_matrix_type           full
_refine_ls_number_parameters     37
_refine_ls_number_reflns         822
_refine_ls_number_restraints     7
_refine_ls_restrained_S_all      1.095
_refine_ls_R_factor_all          0.0269
_refine_ls_R_factor_gt           0.0269
_refine_ls_shift/su_max          0.000
_refine_ls_shift/su_mean         0.000
_refine_ls_structure_factor_coef Fsqd
_refine_ls_weighting_details
'calc w=1/[\s^2^(Fo^2^)+(0.0583P)^2^+0.1634P] where P=(Fo^2^+2Fc^2^)/3'
_refine_ls_weighting_scheme      calc
_refine_ls_wR_factor_gt          0.0698
_refine_ls_wR_factor_ref         0.0698
_reflns_number_gt                821
_reflns_number_total             822
_reflns_threshold_expression     >2sigma(I)
_cod_data_source_file            ja308786r_si_002.cif
_cod_data_source_block           n1705
_cod_database_code               4118891
#BEGIN Tags that were not found in dictionaries:
_smtbx_masks_special_details
;
The solvent masking procedure as implemented in Olex2 was used to remove the
electronic contribution of solvent molecules from the refinement.  Only the
atoms used in the refinement model are reported in the formula here.

Total solvent accessible volume / cell = 2584.3 Ang^3 [54.2%]
Total electron count / cell = 522.4
;
#END Tags that were not found in dictionaries
loop_
_space_group_symop_id
_space_group_symop_operation_xyz
1 'x, y, z'
2 'y, -x, -z'
3 '-x, -y, z'
4 '-y, x, -z'
5 '-x, z, -y'
6 'x, -y, -z'
7 '-x, -z, y'
8 '-z, -y, x'
9 '-x, y, -z'
10 'z, -y, -x'
11 'z, x, y'
12 'y, z, x'
13 '-y, -z, x'
14 'z, -x, -y'
15 '-y, z, -x'
16 '-z, -x, y'
17 '-z, x, -y'
18 'y, -z, -x'
19 '-y, -x, z'
20 'y, x, z'
21 'x, -z, -y'
22 'x, z, y'
23 '-z, y, -x'
24 'z, y, x'
25 'x+1/2, y+1/2, z+1/2'
26 'y+1/2, -x+1/2, -z+1/2'
27 '-x+1/2, -y+1/2, z+1/2'
28 '-y+1/2, x+1/2, -z+1/2'
29 '-x+1/2, z+1/2, -y+1/2'
30 'x+1/2, -y+1/2, -z+1/2'
31 '-x+1/2, -z+1/2, y+1/2'
32 '-z+1/2, -y+1/2, x+1/2'
33 '-x+1/2, y+1/2, -z+1/2'
34 'z+1/2, -y+1/2, -x+1/2'
35 'z+1/2, x+1/2, y+1/2'
36 'y+1/2, z+1/2, x+1/2'
37 '-y+1/2, -z+1/2, x+1/2'
38 'z+1/2, -x+1/2, -y+1/2'
39 '-y+1/2, z+1/2, -x+1/2'
40 '-z+1/2, -x+1/2, y+1/2'
41 '-z+1/2, x+1/2, -y+1/2'
42 'y+1/2, -z+1/2, -x+1/2'
43 '-y+1/2, -x+1/2, z+1/2'
44 'y+1/2, x+1/2, z+1/2'
45 'x+1/2, -z+1/2, -y+1/2'
46 'x+1/2, z+1/2, y+1/2'
47 '-z+1/2, y+1/2, -x+1/2'
48 'z+1/2, y+1/2, x+1/2'
loop_
_atom_site_label
_atom_site_type_symbol
_atom_site_fract_x
_atom_site_fract_y
_atom_site_fract_z
_atom_site_U_iso_or_equiv
_atom_site_adp_type
_atom_site_occupancy
_atom_site_symmetry_multiplicity
_atom_site_calc_flag
_atom_site_refinement_flags
_atom_site_disorder_group
Zn1 Zn 0.5000 0.2500 0.0000 0.05172(18) Uani 1 4 d S .
N1 N 0.53668(10) 0.18295(10) 0.08924(11) 0.0630(4) Uani 1 1 d D .
C1 C 0.5039(4) 0.12063(9) 0.12063(9) 0.0583(5) Uani 1 2 d S .
H1 H 0.4569 0.0985 0.0985 0.070 Uiso 1 2 calc SR .
C2 C 0.6083(4) 0.1825(8) 0.1263(6) 0.098(3) Uani 0.63(3) 1 d PDU 1
H2 H 0.6516 0.2167 0.1143 0.118 Uiso 0.63(3) 1 calc PR 1
C2A C 0.5763(18) 0.2129(12) 0.1536(13) 0.126(8) Uani 0.37(3) 1 d PDU 2
H2A H 0.5995 0.2642 0.1576 0.151 Uiso 0.37(3) 1 calc PR 2
loop_
_atom_site_aniso_label
_atom_site_aniso_U_11
_atom_site_aniso_U_22
_atom_site_aniso_U_33
_atom_site_aniso_U_23
_atom_site_aniso_U_13
_atom_site_aniso_U_12
Zn1 0.05526(19) 0.0446(2) 0.05526(19) 0.000 0.000 0.000
N1 0.0591(8) 0.0588(8) 0.0712(10) 0.0165(7) -0.0037(8) -0.0051(7)
C1 0.0650(14) 0.0550(6) 0.0550(6) 0.0005(8) -0.0016(12) -0.0016(12)
C2 0.055(3) 0.116(6) 0.124(5) 0.065(4) -0.016(3) -0.020(3)
C2A 0.099(13) 0.106(9) 0.172(13) 0.068(9) -0.050(10) -0.047(9)
loop_
_atom_type_symbol
_atom_type_description
_atom_type_scat_dispersion_real
_atom_type_scat_dispersion_imag
_atom_type_scat_source
C C 0.0181 0.0091 'International Tables Vol C Tables 4.2.6.8 and 6.1.1.4'
H H 0.0000 0.0000 'International Tables Vol C Tables 4.2.6.8 and 6.1.1.4'
N N 0.0311 0.0180 'International Tables Vol C Tables 4.2.6.8 and 6.1.1.4'
Zn Zn -1.5491 0.6778 'International Tables Vol C Tables 4.2.6.8 and 6.1.1.4'
loop_
_geom_angle_atom_site_label_1
_geom_angle_atom_site_label_2
_geom_angle_atom_site_label_3
_geom_angle
_geom_angle_site_symmetry_1
_geom_angle_site_symmetry_3
N1 Zn1 N1 109.00(5) 9_655 34
N1 Zn1 N1 109.00(5) 9_655 32_554
N1 Zn1 N1 110.41(11) 34 32_554
N1 Zn1 N1 110.41(11) 9_655 .
N1 Zn1 N1 109.00(5) 34 .
N1 Zn1 N1 109.00(5) 32_554 .
C1 N1 Zn1 129.6(3) . .
C1 N1 C2 100.7(4) . .
C1 N1 C2A 100.6(6) . .
C2 N1 Zn1 129.0(3) . .
C2 N1 C2A 37.4(11) . .
C2A N1 Zn1 122.9(6) . .
N1 C1 N1 118.5(5) . 22
N1 C1 H1 120.8 22 .
N1 C1 H1 120.8 . .
N1 C2 H2 125.4 . .
C2 C2 N1 109.2(3) 22 .
C2 C2 H2 125.4 22 .
N1 C2A C2A 107.4(5) . 22
N1 C2A H2A 126.3 . .
C2A C2A H2A 126.3 22 .
loop_
_geom_bond_atom_site_label_1
_geom_bond_atom_site_label_2
_geom_bond_distance
_geom_bond_site_symmetry_2
Zn1 N1 1.9775(16) 34
Zn1 N1 1.9775(16) 9_655
Zn1 N1 1.9775(16) .
Zn1 N1 1.9775(16) 32_554
N1 C1 1.298(3) .
N1 C2 1.358(6) .
N1 C2A 1.368(13) .
C1 N1 1.298(3) 22
C1 H1 0.9500 .
C2 C2 1.337(12) 22
C2 H2 0.9500 .
C2A C2A 1.41(2) 22
C2A H2A 0.9500 .
loop_
_geom_torsion_atom_site_label_1
_geom_torsion_atom_site_label_2
_geom_torsion_atom_site_label_3
_geom_torsion_atom_site_label_4
_geom_torsion
_geom_torsion_site_symmetry_1
_geom_torsion_site_symmetry_4
Zn1 N1 C1 N1 -175.38(17) . 22
Zn1 N1 C2 C2 -178.6(3) . 22
Zn1 N1 C2A C2A 166.2(5) . 22
N1 Zn1 N1 C1 74.3(2) 32_554 .
N1 Zn1 N1 C1 -165.1(3) 34 .
N1 Zn1 N1 C1 -45.4(3) 9_655 .
N1 Zn1 N1 C2 -116.6(9) 32_554 .
N1 Zn1 N1 C2 4.0(9) 34 .
N1 Zn1 N1 C2 123.7(9) 9_655 .
N1 Zn1 N1 C2A 50.0(19) 34 .
N1 Zn1 N1 C2A 169.7(19) 9_655 .
N1 Zn1 N1 C2A -70.5(19) 32_554 .
C1 N1 C2 C2 -7.1(4) . 22
C1 N1 C2A C2A 13.0(8) . 22
C2 N1 C1 N1 13.3(8) . 22
C2 N1 C2A C2A -80.9(9) . 22
C2A N1 C1 N1 -24.8(16) . 22
C2A N1 C2 C2 86.2(10) . 22
#BEGIN Loops that were not found in dictionaries:
loop_
_smtbx_masks_void_nr
_smtbx_masks_void_average_x
_smtbx_masks_void_average_y
_smtbx_masks_void_average_z
_smtbx_masks_void_volume
_smtbx_masks_void_count_electrons
1 -0.265 -0.025 -0.888 2584.3 522.4
#END Loops that were not found in dictionaries
#------------------------------------------------------------------------------
#$Date: 2016-02-16 22:30:59 +0200 (Tue, 16 Feb 2016) $
#$Revision: 176467 $
#$URL: file:///home/coder/svn-repositories/cod/cif/4/00/06/4000663.cif $
#------------------------------------------------------------------------------
#
# This file is available in the Crystallography Open Database (COD),
# http://www.crystallography.net/
#
# All data on this site have been placed in the public domain by the
# contributors.
#
data_4000663
loop_
_publ_author_name
'Lebedev, O. I.'
'Millange, F.'
'Serre, C.'
'Van Tendeloo, G.'
'F\'erey, G.'
_publ_section_title
;
First direct imaging of giant pores of the Metal-Organic Framework MIL-101
;
_journal_name_full               'Chemistry of Materials'
_journal_paper_doi               10.1021/cm051870o
_journal_year                    2005
_chemical_formula_sum            'C H Cr O'
_space_group_IT_number           227
_symmetry_cell_setting           cubic
_symmetry_space_group_name_Hall  '-F 4vw 2vw 3'
_symmetry_space_group_name_H-M   'F d -3 m :2'
_cell_angle_alpha                90.0
_cell_angle_beta                 90.0
_cell_angle_gamma                90.0
_cell_length_a                   88.86899
_cell_length_b                   88.86899
_cell_length_c                   88.86899
_cell_volume                     701860.313
_pd_proc_ls_prof_R_factor        8.3638
_pd_proc_ls_prof_wR_factor       11.4305
_refine_ls_R_I_factor            5.6408
_cod_depositor_comments
;
The following automatic conversions were performed:
'_symmetry_cell_setting' value 'Cubic' changed to 'cubic' according to
'/home/saulius/struct/CIF-dictionaries/cif_core.dic' dictionary named
'cif_core.dic' version 2.4.1 from 2010-06-29.

Automatic conversion script
Id: cif_fix_enum 1527 2010-12-29 10:47:43Z saulius 
;
_cod_original_sg_symbol_H-M      'F D -3 M'
_cod_original_formula_sum        'Cr C O H'
_cod_database_code               4000663
loop_
_symmetry_equiv_pos_as_xyz
x,y,z
x,-y+1/4,-z+1/4
-x+1/4,y,-z+1/4
-x+1/4,-y+1/4,z
y,z,x
-y+1/4,-z+1/4,x
y,-z+1/4,-x+1/4
-y+1/4,z,-x+1/4
z,x,y
-z+1/4,x,-y+1/4
-z+1/4,-x+1/4,y
z,-x+1/4,-y+1/4
y,x,z
-y+1/4,x,-z+1/4
y,-x+1/4,-z+1/4
-y+1/4,-x+1/4,z
z,y,x
-z+1/4,-y+1/4,x
-z+1/4,y,-x+1/4
z,-y+1/4,-x+1/4
x,z,y
x,-z+1/4,-y+1/4
-x+1/4,-z+1/4,y
-x+1/4,z,-y+1/4
-x,-y,-z
-x,y+3/4,z+3/4
x+3/4,-y,z+3/4
x+3/4,y+3/4,-z
-y,-z,-x
y+3/4,z+3/4,-x
-y,z+3/4,x+3/4
y+3/4,-z,x+3/4
-z,-x,-y
z+3/4,-x,y+3/4
z+3/4,x+3/4,-y
-z,x+3/4,y+3/4
-y,-x,-z
y+3/4,-x,z+3/4
-y,x+3/4,z+3/4
y+3/4,x+3/4,-z
-z,-y,-x
z+3/4,y+3/4,-x
z+3/4,-y,x+3/4
-z,y+3/4,x+3/4
-x,-z,-y
-x,z+3/4,y+3/4
x+3/4,z+3/4,-y
x+3/4,-z,y+3/4
x+1/2,y+1/2,z
x+1/2,-y+3/4,-z+1/4
-x+3/4,y+1/2,-z+1/4
-x+3/4,-y+3/4,z
y+1/2,z+1/2,x
-y+3/4,-z+3/4,x
y+1/2,-z+3/4,-x+1/4
-y+3/4,z+1/2,-x+1/4
z+1/2,x+1/2,y
-z+3/4,x+1/2,-y+1/4
-z+3/4,-x+3/4,y
z+1/2,-x+3/4,-y+1/4
y+1/2,x+1/2,z
-y+3/4,x+1/2,-z+1/4
y+1/2,-x+3/4,-z+1/4
-y+3/4,-x+3/4,z
z+1/2,y+1/2,x
-z+3/4,-y+3/4,x
-z+3/4,y+1/2,-x+1/4
z+1/2,-y+3/4,-x+1/4
x+1/2,z+1/2,y
x+1/2,-z+3/4,-y+1/4
-x+3/4,-z+3/4,y
-x+3/4,z+1/2,-y+1/4
-x+1/2,-y+1/2,-z
-x+1/2,y+1/4,z+3/4
x+1/4,-y+1/2,z+3/4
x+1/4,y+1/4,-z
-y+1/2,-z+1/2,-x
y+1/4,z+1/4,-x
-y+1/2,z+1/4,x+3/4
y+1/4,-z+1/2,x+3/4
-z+1/2,-x+1/2,-y
z+1/4,-x+1/2,y+3/4
z+1/4,x+1/4,-y
-z+1/2,x+1/4,y+3/4
-y+1/2,-x+1/2,-z
y+1/4,-x+1/2,z+3/4
-y+1/2,x+1/4,z+3/4
y+1/4,x+1/4,-z
-z+1/2,-y+1/2,-x
z+1/4,y+1/4,-x
z+1/4,-y+1/2,x+3/4
-z+1/2,y+1/4,x+3/4
-x+1/2,-z+1/2,-y
-x+1/2,z+1/4,y+3/4
x+1/4,z+1/4,-y
x+1/4,-z+1/2,y+3/4
x+1/2,y,z+1/2
x+1/2,-y+1/4,-z+3/4
-x+3/4,y,-z+3/4
-x+3/4,-y+1/4,z+1/2
y+1/2,z,x+1/2
-y+3/4,-z+1/4,x+1/2
y+1/2,-z+1/4,-x+3/4
-y+3/4,z,-x+3/4
z+1/2,x,y+1/2
-z+3/4,x,-y+3/4
-z+3/4,-x+1/4,y+1/2
z+1/2,-x+1/4,-y+3/4
y+1/2,x,z+1/2
-y+3/4,x,-z+3/4
y+1/2,-x+1/4,-z+3/4
-y+3/4,-x+1/4,z+1/2
z+1/2,y,x+1/2
-z+3/4,-y+1/4,x+1/2
-z+3/4,y,-x+3/4
z+1/2,-y+1/4,-x+3/4
x+1/2,z,y+1/2
x+1/2,-z+1/4,-y+3/4
-x+3/4,-z+1/4,y+1/2
-x+3/4,z,-y+3/4
-x+1/2,-y,-z+1/2
-x+1/2,y+3/4,z+1/4
x+1/4,-y,z+1/4
x+1/4,y+3/4,-z+1/2
-y+1/2,-z,-x+1/2
y+1/4,z+3/4,-x+1/2
-y+1/2,z+3/4,x+1/4
y+1/4,-z,x+1/4
-z+1/2,-x,-y+1/2
z+1/4,-x,y+1/4
z+1/4,x+3/4,-y+1/2
-z+1/2,x+3/4,y+1/4
-y+1/2,-x,-z+1/2
y+1/4,-x,z+1/4
-y+1/2,x+3/4,z+1/4
y+1/4,x+3/4,-z+1/2
-z+1/2,-y,-x+1/2
z+1/4,y+3/4,-x+1/2
z+1/4,-y,x+1/4
-z+1/2,y+3/4,x+1/4
-x+1/2,-z,-y+1/2
-x+1/2,z+3/4,y+1/4
x+1/4,z+3/4,-y+1/2
x+1/4,-z,y+1/4
x,y+1/2,z+1/2
x,-y+3/4,-z+3/4
-x+1/4,y+1/2,-z+3/4
-x+1/4,-y+3/4,z+1/2
y,z+1/2,x+1/2
-y+1/4,-z+3/4,x+1/2
y,-z+3/4,-x+3/4
-y+1/4,z+1/2,-x+3/4
z,x+1/2,y+1/2
-z+1/4,x+1/2,-y+3/4
-z+1/4,-x+3/4,y+1/2
z,-x+3/4,-y+3/4
y,x+1/2,z+1/2
-y+1/4,x+1/2,-z+3/4
y,-x+3/4,-z+3/4
-y+1/4,-x+3/4,z+1/2
z,y+1/2,x+1/2
-z+1/4,-y+3/4,x+1/2
-z+1/4,y+1/2,-x+3/4
z,-y+3/4,-x+3/4
x,z+1/2,y+1/2
x,-z+3/4,-y+3/4
-x+1/4,-z+3/4,y+1/2
-x+1/4,z+1/2,-y+3/4
-x,-y+1/2,-z+1/2
-x,y+1/4,z+1/4
x+3/4,-y+1/2,z+1/4
x+3/4,y+1/4,-z+1/2
-y,-z+1/2,-x+1/2
y+3/4,z+1/4,-x+1/2
-y,z+1/4,x+1/4
y+3/4,-z+1/2,x+1/4
-z,-x+1/2,-y+1/2
z+3/4,-x+1/2,y+1/4
z+3/4,x+1/4,-y+1/2
-z,x+1/4,y+1/4
-y,-x+1/2,-z+1/2
y+3/4,-x+1/2,z+1/4
-y,x+1/4,z+1/4
y+3/4,x+1/4,-z+1/2
-z,-y+1/2,-x+1/2
z+3/4,y+1/4,-x+1/2
z+3/4,-y+1/2,x+1/4
-z,y+1/4,x+1/4
-x,-z+1/2,-y+1/2
-x,z+1/4,y+1/4
x+3/4,z+1/4,-y+1/2
x+3/4,-z+1/2,y+1/4
loop_
_atom_site_label
_atom_site_fract_x
_atom_site_fract_y
_atom_site_fract_z
_atom_site_U_iso_or_equiv
_atom_site_occupancy
_atom_site_adp_type
_atom_site_type_symbol
Cr1 0.09473 -0.07201 0.51291 0.00000 1.00000 Uiso Cr
Cr2 -0.07092 -0.09773 0.82092 0.00000 1.00000 Uiso Cr
Cr3 0.14205 0.35795 0.50000 0.00000 1.00000 Uiso Cr
Cr4 0.12500 0.35421 0.62500 0.00000 1.00000 Uiso Cr
Cr5 0.13618 0.36129 -0.11129 0.00000 1.00000 Uiso Cr
Cr6 0.21632 0.21632 0.29932 0.00000 1.00000 Uiso Cr
Cr7 0.32280 0.29246 0.70846 0.00000 1.00000 Uiso Cr
O1 0.07916 0.07916 0.17085 0.00000 1.00002 Uiso O
O2 0.20004 0.20004 0.29603 0.00000 1.00000 Uiso O
O3 0.12500 -0.12367 0.12500 0.00000 1.00000 Uiso O
O4 0.15812 0.34189 0.50000 0.00000 1.00000 Uiso O
O5 0.85869 -0.09018 -0.06964 0.00000 1.00000 Uiso O
O6 0.32390 0.30587 0.72646 0.00000 1.00000 Uiso O
O7 0.33886 0.32263 0.80070 0.00000 1.00000 Uiso O
O8 0.22122 0.27416 0.82068 0.00000 1.00000 Uiso O
O9 0.21763 0.27195 0.79523 0.00000 1.00000 Uiso O
O10 0.07701 -0.07439 0.48044 0.00000 1.00000 Uiso O
O11 0.08776 -0.05997 0.49692 0.00000 1.00000 Uiso O
O12 0.08758 -0.02721 0.39876 0.00000 1.00000 Uiso O
O13 0.10774 -0.02253 0.38451 0.00000 1.00000 Uiso O
O14 0.10125 -0.10189 0.37552 0.00000 1.00000 Uiso O
O15 0.12292 -0.09307 0.36631 0.00000 1.00000 Uiso O
O16 0.69362 -0.05911 -0.07805 0.00000 1.00000 Uiso O
O17 0.64839 -0.10378 -0.12056 0.00000 1.00000 Uiso O
O18 0.18523 -0.02376 0.45379 0.00000 1.00000 Uiso O
O19 0.18927 -0.03088 0.43055 0.00000 1.00000 Uiso O
O20 0.11692 0.00664 0.42722 0.00000 1.00000 Uiso O
O21 0.12647 -0.00338 0.40475 0.00000 1.00000 Uiso O
O22 -0.06102 -0.11185 0.81102 0.00000 1.00000 Uiso O
O23 0.34415 0.28873 0.71087 0.00000 1.00000 Uiso O
O24 0.26893 0.20642 0.76893 0.00000 1.00000 Uiso O
O25 0.15369 0.35171 -0.10171 0.00000 1.00000 Uiso O
O26 0.12500 0.33237 0.62500 0.00000 1.00000 Uiso O
O27 0.12523 0.37477 0.50000 0.00000 1.00000 Uiso O
O28 0.09420 -0.05250 0.52526 0.00000 1.00000 Uiso O
C1 -0.12050 -0.10929 -0.06934 0.00000 1.00000 Uiso C
C2 0.14658 0.10341 0.06614 0.00000 1.00000 Uiso C
C3 0.13577 0.11423 0.06680 0.00000 1.00000 Uiso C
C4 0.33163 0.31200 0.75507 0.00000 1.00000 Uiso C
C5 0.18414 0.18414 0.26664 0.00000 1.00000 Uiso C
C6 0.17855 0.17855 0.25298 0.00000 1.00000 Uiso C
C7 0.33506 0.31530 0.77052 0.00000 1.00000 Uiso C
C8 0.17083 0.17083 0.20626 0.00000 1.00000 Uiso C
C9 0.17268 0.17268 0.22215 0.00000 1.00000 Uiso C
C10 0.23623 0.24748 0.79691 0.00000 1.00000 Uiso C
C11 0.22600 0.27033 0.80736 0.00000 1.00000 Uiso C
C12 0.23755 0.25940 0.80736 0.00000 1.00000 Uiso C
C13 0.24506 0.25632 0.82141 0.00000 1.00000 Uiso C
C14 0.07184 -0.05231 0.45923 0.00000 1.00000 Uiso C
C15 0.08022 -0.06130 0.48456 0.00000 1.00000 Uiso C
C16 0.08111 -0.05018 0.47259 0.00000 1.00000 Uiso C
C17 0.09290 -0.03933 0.47197 0.00000 1.00000 Uiso C
C18 0.09204 -0.05816 0.39347 0.00000 1.00000 Uiso C
C19 0.09671 -0.03092 0.38844 0.00000 1.00000 Uiso C
C20 0.09891 -0.04596 0.38504 0.00000 1.00000 Uiso C
C21 0.09472 -0.07310 0.38883 0.00000 1.00000 Uiso C
C22 0.11030 -0.09071 0.37309 0.00000 1.00000 Uiso C
C23 0.10769 -0.07589 0.37950 0.00000 1.00000 Uiso C
C24 0.11224 -0.04836 0.37746 0.00000 1.00000 Uiso C
C25 0.11582 -0.06350 0.37311 0.00000 1.00000 Uiso C
C26 0.69470 -0.07340 -0.07340 0.00000 1.00000 Uiso C
C27 0.68725 -0.08343 -0.08343 0.00000 1.00000 Uiso C
C28 0.65361 -0.10826 -0.10826 0.00000 1.00000 Uiso C
C29 0.66184 -0.09804 -0.09804 0.00000 1.00000 Uiso C
C30 0.67951 -0.07678 -0.09529 0.00000 1.00000 Uiso C
C31 0.66801 -0.08485 -0.10355 0.00000 1.00000 Uiso C
C32 0.15706 -0.01355 0.44571 0.00000 1.00000 Uiso C
C33 0.18130 -0.02464 0.44016 0.00000 1.00000 Uiso C
C34 0.16789 -0.01807 0.43518 0.00000 1.00000 Uiso C
C35 0.14422 -0.00617 0.44076 0.00000 1.00000 Uiso C
C36 0.12747 -0.00095 0.41918 0.00000 1.00000 Uiso C
C37 0.14175 -0.00489 0.42522 0.00000 1.00000 Uiso C
C38 0.16484 -0.01846 0.41968 0.00000 1.00000 Uiso C
C39 0.15158 -0.01171 0.41458 0.00000 1.00000 Uiso C
Ow1 0.31076 0.28784 0.78784 0.00000 1.00000 Uiso O
Ow2 0.24713 0.20958 0.74713 0.00000 1.00000 Uiso O
Ow3 0.21979 0.25383 0.85500 0.00000 1.00000 Uiso O
Ow4 0.17001 -0.04716 0.45284 0.00000 1.00000 Uiso O
Ow5 0.13030 -0.09584 0.40416 0.00000 1.00000 Uiso O
Ow6 0.02319 -0.22614 0.77386 0.00000 1.00000 Uiso O
Ow7 0.18775 0.34925 -0.09925 0.00000 1.00000 Uiso O
Ow8 -0.11440 -0.11440 -0.11440 0.00000 1.00002 Uiso O
Ow9 0.15811 0.32404 0.59189 0.00000 1.00000 Uiso O
Ow10 -0.07621 -0.07621 -0.10122 0.00000 1.00000 Uiso O
Ow11 0.20882 0.37500 -0.12500 0.00000 1.00000 Uiso O
Ow12 0.11464 -0.03449 0.51497 0.00000 1.00000 Uiso O
Ow13 0.08160 -0.07090 0.42910 0.00000 1.00000 Uiso O
Ow14 0.15920 -0.04691 0.39261 0.00000 1.00000 Uiso O
Ow15 0.13325 -0.02995 0.47005 0.00000 1.00000 Uiso O
Ow16 0.15625 -0.01948 0.38115 0.00000 1.00000 Uiso O
Ow17 0.27669 0.27669 0.77669 0.00000 0.99996 Uiso O
Ow18 -0.09712 -0.09712 -0.09712 0.00000 0.99996 Uiso O
Ow19 -0.04528 -0.12808 0.79528 0.00000 1.00000 Uiso O
Ow20 0.15922 0.35978 -0.06480 0.00000 1.00000 Uiso O
Ow21 0.18491 0.02613 0.47574 0.00000 1.00000 Uiso O
Ow22 0.11492 -0.01105 0.48895 0.00000 1.00000 Uiso O
Ow23 0.25734 0.23384 0.75734 0.00000 1.00000 Uiso O
Ow24 0.25538 0.39416 -0.04670 0.00000 1.00000 Uiso O
Ow25 0.13059 -0.04093 0.41889 0.00000 1.00000 Uiso O
Ow26 0.12293 -0.05856 0.44144 0.00000 1.00000 Uiso O
Ow27 0.15846 0.15846 0.65847 0.00000 1.00002 Uiso O
Ow28 0.35713 0.28245 0.68784 0.00000 1.00000 Uiso O
Ow29 0.13605 -0.06577 0.41093 0.00000 1.00000 Uiso O
Ow30 0.08462 0.38665 0.50000 0.00000 0.50000 Uiso O
Ow31 0.22787 0.37152 -0.05026 0.00000 1.00000 Uiso O
Ow32 0.13859 0.33373 -0.08373 0.00000 1.00000 Uiso O
Ow33 0.16049 0.06754 0.42418 0.00000 1.00000 Uiso O
Ow34 0.11466 0.06339 0.44263 0.00000 1.00000 Uiso O
